&CONTROL
    calculation = 'scf'
    prefix      = 'pristine_NbSe2'
    pseudo_dir  = '/root/qe_pseudos'
    outdir      = '/root/qe_scratch'
    verbosity   = 'low'
    tprnfor     = .true.
    tstress     = .true.
    nstep       = 60
    forc_conv_thr = 1.0d-3
    etot_conv_thr = 1.0d-5
/
&SYSTEM
    ibrav   = 0
    nat     = 27
    ntyp    = 2
    ecutwfc = 50.0
    ecutrho = 400.0
    occupations = 'smearing'
    smearing    = 'mp'
    degauss     = 0.01

/
&ELECTRONS
    conv_thr        = 1.0d-7
    mixing_beta     = 0.4
    electron_maxstep = 200
    diagonalization = 'david'
/
&IONS
    ion_dynamics = 'bfgs'
/

CELL_PARAMETERS angstrom
     10.41458893     0.00000000     0.00000000
     -5.20729446     9.01929855     0.00000000
      0.00000000     0.00000000    18.35544777

ATOMIC_SPECIES
  Nb    92.9064  Nb.pbe-spn-kjpaw_psl.0.3.0.UPF
  Se    78.9710  Se_pbe_v1.uspp.F.UPF

ATOMIC_POSITIONS angstrom
  Nb     -0.10476914    -0.06037495     9.19898129
  Nb      3.45986986     6.02608252     9.22006607
  Nb      5.21324492     3.00984621     9.18459415
  Nb     -1.73756731     3.00658298     9.18719864
  Nb      6.94796324    -0.01702365     9.21945858
  Nb      0.00748934     6.01726627     9.20572281
  Nb     -3.47253418     6.01099968     9.18728256
  Nb      1.73845816     3.11012077     9.20880318
  Nb      3.56174922    -0.04852448     9.20888996
  Se      5.22531509     1.02137256    10.87600994
  Se      5.21378756     6.99303532    10.87811089
  Se      1.71938014     0.99359846    10.72299385
  Se      6.94776726     4.01136732     7.52066422
  Se      6.94595194     4.00989485    10.84192371
  Se      1.73144221     0.99990112     7.64891005
  Se      8.65843964     1.00196493     7.51799011
  Se      8.66245365     1.01869345    10.87751865
  Se     -0.02520548     4.01943779    10.87685013
  Se      1.73989940     7.01674128     7.52402496
  Se      1.73337460     7.01310062    10.87413025
  Se     -0.00463534     4.01191330     7.51905203
  Se      3.47583747     4.01969242     7.52327251
  Se      5.19725800     6.99823475     7.51892519
  Se     -1.73959708     6.98828888    10.87558937
  Se      5.21782827     0.99949789     7.52329397
  Se     -1.73557770     7.00954819     7.51956511
  Se      3.49757528     4.01489115    10.87635899

K_POINTS automatic
  2 2 1 0 0 0
