&CONTROL
    calculation = 'scf'
    prefix      = 'pristine_NbS2'
    pseudo_dir  = '/root/qe_pseudos'
    outdir      = '/root/qe_scratch'
    verbosity   = 'low'
    tprnfor     = .true.
    tstress     = .true.
    nstep       = 60
    forc_conv_thr = 1.0d-3
    etot_conv_thr = 1.0d-5
/
&SYSTEM
    ibrav   = 0
    nat     = 27
    ntyp    = 2
    ecutwfc = 50.0
    ecutrho = 400.0
    occupations = 'smearing'
    smearing    = 'mp'
    degauss     = 0.01

/
&ELECTRONS
    conv_thr        = 1.0d-7
    mixing_beta     = 0.4
    electron_maxstep = 200
    diagonalization = 'david'
/
&IONS
    ion_dynamics = 'bfgs'
/

CELL_PARAMETERS angstrom
     10.03333855     0.00000000     0.00000000
     -5.01666927     8.68912601     0.00000000
      0.00000000     0.00000000    18.12443924

ATOMIC_SPECIES
  Nb    92.9064  Nb.pbe-spn-kjpaw_psl.0.3.0.UPF
  S     32.0600  s_pbe_v1.4.uspp.F.UPF

ATOMIC_POSITIONS angstrom
  Nb      3.34213829     5.79406261     9.05848217
  Nb      5.01503992     2.87007236     9.07940483
  Nb      6.64253759    -0.00444621     9.12610912
  Nb     -0.01930522     5.83512878     9.12619591
  Nb      1.71957099     2.86014605     9.04475594
  Nb      3.35813022    -0.00786476     9.09998131
  Nb      0.05502919    -0.02292037     9.04455948
  Nb     -3.32246089     5.80727386     9.07939434
  Nb     -1.74447286     2.93796682     8.92894268
  S      -1.65294957     6.74448061     7.52099133
  S       5.01842451     6.75616503    10.61012363
  S       1.70177472     0.94823319    10.62781715
  S       6.62001371     3.90162230     7.47295475
  S       6.69354916     3.85911822    10.60085773
  S       1.68810368     0.95642430     7.48865509
  S       8.34829903     0.92464888     7.53880024
  S       8.41509438     0.88798791    10.79318237
  S       1.65497220     6.76814556     7.53407526
  S       1.66461372     6.76257753    10.65644455
  S       0.09462790     3.85480165    10.79391479
  S       3.35190725     3.84842777     7.50452042
  S       5.03188658     6.75840998     7.50453997
  S       0.02901030     3.89326000     7.53897285
  S       5.03821135     0.95566905     7.52098370
  S       4.99730349     0.96645147    10.66503525
  S      -1.68276346     6.77456236    10.66504955
  S       3.34708667     3.86136198    10.61014175

K_POINTS automatic
  2 2 1 0 0 0
