&CONTROL
    calculation = 'scf'
    prefix      = 'pristine_C2H2'
    pseudo_dir  = '/root/qe_pseudos'
    outdir      = '/root/qe_scratch'
    verbosity   = 'low'
    tprnfor     = .true.
    tstress     = .true.
    nstep       = 60
    forc_conv_thr = 1.0d-3
    etot_conv_thr = 1.0d-5
/
&SYSTEM
    ibrav   = 0
    nat     = 64
    ntyp    = 2
    ecutwfc = 50.0
    ecutrho = 400.0
    occupations = 'smearing'
    smearing    = 'mp'
    degauss     = 0.01

/
&ELECTRONS
    conv_thr        = 1.0d-7
    mixing_beta     = 0.4
    electron_maxstep = 200
    diagonalization = 'david'
/
&IONS
    ion_dynamics = 'bfgs'
/

CELL_PARAMETERS angstrom
     10.15573120     0.00000000     0.00000000
     -5.07786560     8.79512119     0.00000000
      0.00000000     0.00000000    16.71999931

ATOMIC_SPECIES
  C     12.0110  C.pbe-n-kjpaw_psl.1.0.0.UPF
  H      1.0080  H_ONCV_PBE-1.0.upf

ATOMIC_POSITIONS angstrom
  C       0.00200721     5.86457396     8.60761166
  C       2.61983037    -0.04670807     8.03620243
  C      -1.23965585     8.04498386     8.63392544
  C       5.08720255     1.47041452     8.57532406
  C       2.53971291     4.40800619     8.14499283
  C       3.81701708     3.67043972     8.57532406
  C       1.26946628     6.59634113     8.14400864
  C       2.53692484     5.86457396     8.60761166
  C      -1.26081121     6.59044361     8.14499378
  C       5.08730030    -0.00454692     8.14499283
  C       6.34733295     2.20110846     8.11297989
  C       7.60746288     1.47041357     8.57532501
  C       5.07988214     4.39639616     8.11298084
  C       6.34733200     3.66463375     8.57685947
  C       3.79974341     6.59044313     8.14499378
  C       5.07714653     5.85304785     8.57532501
  C       7.60736322    -0.00454741     8.14499283
  C       3.77858686     8.04498196     8.63392544
  C       1.26946580     8.05987644     8.60761166
  C       1.26946676     3.69905853     8.63392544
  C      -1.29930389     2.21600676     8.08583927
  C       3.83823943     2.21600842     8.08583736
  C      -0.00077930     4.40800619     8.14499378
  C      -3.80839968     6.56188345     8.08583832
  C      -0.08089855    -0.04671223     8.03620338
  C      -3.80840111     7.96903181     8.68272495
  C      -1.27808344     3.67043877     8.57532406
  C      -2.54094887     4.39639568     8.11298084
  C      -2.53821445     5.85304785     8.57532406
  C       2.61961365     1.51243627     8.68272972
  C      -0.08068004     1.51243281     8.68273544
  C       1.26947033     2.29219794     8.03619957
  H      -0.21142045     1.58791542     9.78621006
  H       6.34733248     3.66463423     9.69118595
  H       1.26946652     6.59634113     7.02951527
  H       5.08033848     4.39613295     7.00100374
  H      -1.28080201     2.20532465     6.97719812
  H       7.62014341     1.48904514     9.68957996
  H       5.09962273     5.85471344     9.68957996
  H       7.61961508    -0.02316455     7.03074408
  H      -1.28787935     3.65014100     9.68957901
  H      -0.21192802    -0.12236191     6.93281126
  H       1.26946580     8.05950356     9.71951675
  H       3.78974533     6.61036158     7.03074455
  H       6.34733248     2.20163560     7.00100422
  H       1.26947105     2.44350004     6.93280840
  H       2.51746392     4.40670586     7.03074360
  H       1.26946652     3.67737484     9.74250698
  H       2.75035024     1.58791828     9.78620434
  H       2.75086045    -0.12235846     6.93281031
  H       0.02146983     4.40670443     7.03074360
  H       0.00233111     5.86476040     9.71951771
  H      -1.25081336     6.61036205     7.03074408
  H      -1.25843596     8.05582714     9.74250698
  H       3.79736614     8.05582523     9.74250793
  H      -3.80840111     7.81807327     9.78620052
  H       5.07504940    -0.02316425     7.03074312
  H       5.07452106     1.48904634     9.68957901
  H      -3.80839920     6.58324480     6.97719622
  H       3.81973839     2.20532632     6.97719669
  H       3.82681227     3.65014219     9.68957901
  H      -2.56069112     5.85471392     9.68957996
  H      -2.54140520     4.39613295     7.00100422
  H       2.53660154     5.86476088     9.71951771

K_POINTS automatic
  2 2 1 0 0 0
