&CONTROL
    calculation = 'scf'
    prefix      = 'pristine_V2CO2'
    pseudo_dir  = '/root/qe_pseudos'
    outdir      = '/root/qe_scratch'
    verbosity   = 'low'
    tprnfor     = .true.
    tstress     = .true.
    nstep       = 60
    forc_conv_thr = 1.0d-3
    etot_conv_thr = 1.0d-5
/
&SYSTEM
    ibrav   = 0
    nat     = 80
    ntyp    = 3
    ecutwfc = 50.0
    ecutrho = 400.0
    occupations = 'smearing'
    smearing    = 'mp'
    degauss     = 0.01

/
&ELECTRONS
    conv_thr        = 1.0d-7
    mixing_beta     = 0.4
    electron_maxstep = 200
    diagonalization = 'david'
/
&IONS
    ion_dynamics = 'bfgs'
/

CELL_PARAMETERS angstrom
     11.62608814     0.00000000     0.00000000
     -5.81304407    10.06848812     0.00000000
      0.00000000     0.00000000    19.41592598

ATOMIC_SPECIES
  C     12.0110  C.pbe-n-kjpaw_psl.1.0.0.UPF
  O     15.9990  O.pbe-n-kjpaw_psl.0.1.UPF
  V     50.9415  v_pbe_v1.4.uspp.F.UPF

ATOMIC_POSITIONS angstrom
  C       1.45841229     7.54849243     9.72355461
  C       1.45172429     2.51640058     9.72417545
  C      -1.45845485     7.54851627     9.72353745
  C       2.92336679    -0.01001338     9.70043373
  C      -4.35883331     7.55353689     9.71313953
  C       5.81306601     5.03418922     9.71361256
  C       5.81305599     0.00554216     9.72346020
  C       0.00002977     5.05422926     9.70056534
  C      -2.90422344     5.03394604     9.71297741
  C       8.70275211    -0.01001114     9.70042896
  C       7.26776266     2.51518631     9.71313381
  C      -1.45171189     2.51633120     9.72417831
  C       4.35886002     7.55351162     9.71314335
  C       2.90422297     5.03393650     9.71312237
  C      -0.00001309     0.00165530     9.72413731
  C       4.35833549     2.51521206     9.71316624
  O       4.35054016     4.18927336    11.91887760
  O       4.36045837     5.87359047     7.51169729
  O      -0.00002117     6.70867157    11.91816235
  O       1.45804501     5.87579823     7.51163626
  O      10.17446232     0.84058756     7.51425362
  O       2.90695763     6.71246386    11.93821430
  O       0.00004974     8.38971901     7.53966475
  O       5.81302691     8.38261127     7.48913002
  O       8.75080776     1.66239786    11.96237755
  O       2.90718484     8.38484001     7.51122141
  O       7.26233339     0.84273529     7.51161718
  O       5.81301880     3.35629964     7.51129913
  O      -1.45712614     9.23104095    11.91777515
  O       5.81307220     1.67856848    11.93819904
  O       1.42441845     4.17627287    11.96227741
  O      -1.45805609     5.87582493     7.51164484
  O       7.26559782     5.87360811     7.51166964
  O      -2.90698767     6.71243715    11.93816280
  O       2.91262293     3.35946512     7.48939371
  O       5.81304169     6.72350025    11.91905022
  O      -4.36195707     9.26390839    11.96237564
  O       0.00006399     3.35375810     7.51387262
  O       1.45165730     0.84058648     7.51424599
  O      -2.90715027     8.38486862     7.51115227
  O       2.87537694     1.66241968    11.96230507
  O       4.36368799     0.84279191     7.51159763
  O       4.36200428     9.26386356    11.96237087
  O       8.71349716     3.35936069     7.48930645
  O       7.27562666     4.18932629    11.91888428
  O       1.45709217     9.23103905    11.91779804
  O       0.00000825     1.67910755    11.99117565
  O      -1.42441738     4.17628622    11.96221924
  V       5.81305981     8.40483284    10.86905479
  V       8.73188210     1.71466589     8.51655102
  V       8.73234177     3.34912109    10.86904812
  V      10.05763721     0.77258629    10.82998371
  V       7.23913908     5.85773230    10.88933754
  V       5.81311083     6.69086075     8.52796936
  V       7.24768925     4.20583296     8.52755356
  V       4.39762163     9.22207165     8.51651096
  V       0.00005916     1.67803621     8.55104065
  V       5.81268406     1.63945758     8.52855873
  V       1.46995497     9.23913002     8.53315258
  V       1.56845009     0.77263242    10.83003044
  V      -1.47804105     4.16612959     8.51677513
  V       0.00019317     3.48894572    10.82995892
  V      -2.87291074     6.73175812     8.52804947
  V      -1.48373330     5.88658237    10.91710663
  V      -4.39782190     9.22186470     8.51655674
  V      -2.91024971     8.35662556    10.91758537
  V       2.89368629     1.71492136     8.51655960
  V       4.38707066     0.85871220    10.91729546
  V       2.91014886     8.35678101    10.91738605
  V       1.47815967     4.16621399     8.51671791
  V       0.00001203     6.69379807     8.53326416
  V       1.48374879     5.88670969    10.91732597
  V      -1.47003388     9.23916245     8.53315544
  V       0.00003616     8.39005756    10.91209221
  V       7.23919439     0.85864860    10.91715527
  V       4.37859201     4.20605135     8.52764130
  V       5.81328630     3.38738871    10.88943958
  V       2.87296104     6.73161507     8.52823734
  V       4.38683033     5.85765266    10.88959694
  V       2.89412713     3.34894061    10.86908722

K_POINTS automatic
  2 2 1 0 0 0
