&CONTROL
    calculation = 'scf'
    prefix      = 'pristine_MoTe2'
    pseudo_dir  = '/root/qe_pseudos'
    outdir      = '/root/qe_scratch'
    verbosity   = 'low'
    tprnfor     = .true.
    tstress     = .true.
    nstep       = 60
    forc_conv_thr = 1.0d-3
    etot_conv_thr = 1.0d-5
/
&SYSTEM
    ibrav   = 0
    nat     = 27
    ntyp    = 2
    ecutwfc = 50.0
    ecutrho = 400.0
    occupations = 'smearing'
    smearing    = 'mp'
    degauss     = 0.01

/
&ELECTRONS
    conv_thr        = 1.0d-7
    mixing_beta     = 0.4
    electron_maxstep = 200
    diagonalization = 'david'
/
&IONS
    ion_dynamics = 'bfgs'
/

CELL_PARAMETERS angstrom
     10.64217663     0.00000000     0.00000000
     -5.32108831     9.21639538     0.00000000
      0.00000000     0.00000000    18.61020088

ATOMIC_SPECIES
  Mo    95.9500  Mo_ONCV_PBE-1.0.upf
  Te   127.6000  Te_pbe_v1.uspp.F.UPF

ATOMIC_POSITIONS angstrom
  Mo      0.00980091     0.00071405     9.28091812
  Mo      3.54991961     6.15470123     9.28076744
  Mo     -1.76505733     3.08829904     9.28640652
  Mo     -3.54399586     6.16351700     9.26567554
  Mo      5.30878687     3.05785084     9.26443577
  Mo      3.55049968    -0.00161728     9.26314449
  Mo      7.08630419     0.00594212     9.27758312
  Mo      1.77747953     3.07342744     9.26152039
  Mo     -0.00168324     6.15380669     9.26124573
  Te      5.32726908     7.17111206    11.08128071
  Te      7.09367275     4.09706783     7.48899460
  Te      7.08287096     4.10395956    11.05995560
  Te      8.87577724     1.03122389     7.48966217
  Te      8.87109470     1.04613698    11.07938099
  Te      1.77780819     7.17728901     7.47163630
  Te      1.76640439     7.17180920    11.07766342
  Te      3.54493093     4.09463358    11.07102394
  Te      5.31972599     7.18203497     7.47160196
  Te      5.32322121     1.01860130     7.46316051
  Te      5.30600357     1.01678014    11.07821083
  Te     -1.77250326     7.17304420     7.46329403
  Te     -1.76742101     7.17630672    11.07781887
  Te     -0.00381324     4.09800816     7.47061825
  Te      0.01727806     4.10936975    11.06838417
  Te      1.77334583     1.02602768     7.47151566
  Te      1.78557360     1.02551675    11.07509136
  Te      3.54815555     4.10817242     7.46815729

K_POINTS automatic
  2 2 1 0 0 0
