&CONTROL
    calculation = 'scf'
    prefix      = 'pristine_TiO2'
    pseudo_dir  = '/root/qe_pseudos'
    outdir      = '/root/qe_scratch'
    verbosity   = 'low'
    tprnfor     = .true.
    tstress     = .true.
    nstep       = 60
    forc_conv_thr = 1.0d-3
    etot_conv_thr = 1.0d-5
/
&SYSTEM
    ibrav   = 0
    nat     = 48
    ntyp    = 2
    ecutwfc = 50.0
    ecutrho = 400.0
    occupations = 'smearing'
    smearing    = 'mp'
    degauss     = 0.01

/
&ELECTRONS
    conv_thr        = 1.0d-7
    mixing_beta     = 0.4
    electron_maxstep = 200
    diagonalization = 'david'
/
&IONS
    ion_dynamics = 'bfgs'
/

CELL_PARAMETERS angstrom
     11.97523117     0.00000000     0.00000000
     -5.98761559    10.37085438     0.00000000
      0.00000000     0.00000000    16.93569756

ATOMIC_SPECIES
  O     15.9990  O.pbe-n-kjpaw_psl.0.1.UPF
  Ti    47.8670  ti_pbe_v1.4.uspp.F.UPF

ATOMIC_POSITIONS angstrom
  O       1.49682677     0.86424226    10.90778446
  O       1.49684882     6.05160189     9.43282604
  O      -0.00448683     6.91133785     7.50542068
  O       8.97774601     3.45904565     9.42814541
  O       0.00161472     8.64138889     9.43281555
  O      -1.48325729     9.49864197     7.49196959
  O       4.47709417     9.49878502     7.49223042
  O       7.48447752     4.32119703     7.49132109
  O       7.48441601     0.86443740     9.44224834
  O       5.99117470     3.45903373     9.42825794
  O       4.49155569     4.32481241     7.50257111
  O       8.97777557     1.72740984     7.50255156
  O       4.49077606     6.04949474     9.44237900
  O       2.99813223     6.91131353     7.50540781
  O      10.47347927     0.86919057     9.42472744
  O       5.99117947     1.72740018     7.50258017
  O       2.99197483     8.64136124     9.43285847
  O       1.49683952     4.33702421     7.49193716
  O      -1.49708045     6.04961395     9.44239616
  O       1.49691761     0.86424071     9.52337837
  O       0.02708354     1.71286535     7.50200987
  O       5.98947191     8.63572025     9.42471981
  O      -0.00655941     3.45863628     9.42460442
  O      -1.49780405     4.32486773     7.50258303
  O       3.00033760     3.45869112     9.42465401
  O       1.49683714     9.51169300     7.50542688
  O       5.98488998     6.91126251     7.50261974
  O      -2.99555802     8.63579941     9.42469597
  O      -4.49068165     9.53794003     7.50215006
  O       7.48451185     6.04546547     9.42824459
  O       4.49542570     0.86901253     9.42463589
  O       2.96662092     1.71281338     7.50217628
  Ti      7.48466873     2.60494971     8.46551514
  Ti      4.49107075     7.75897026     8.47770596
  Ti      5.99811697     5.17948723     8.46531773
  Ti     -0.05509312    -0.03206807     8.41819382
  Ti      1.49687874     7.77820873     8.48278809
  Ti      3.01078391     5.19505405     8.47782612
  Ti      4.47649384     2.58457446     8.46632862
  Ti     -1.49702096     7.75847054     8.47775173
  Ti     -0.01714588     5.19502401     8.47771263
  Ti      1.49705303     2.65701389     8.41762829
  Ti      3.04940343    -0.03196465     8.41753292
  Ti     -4.49079084     7.79480410     8.46633339
  Ti     -3.00436902     5.17908525     8.46555710
  Ti     -1.48248446     2.58415365     8.46591759
  Ti      8.96495247     0.00972657     8.47762966
  Ti      6.00443220     0.00989223     8.47781563

K_POINTS automatic
  2 2 1 0 0 0
