&CONTROL
    calculation = 'scf'
    prefix      = 'pristine_PtSe2'
    pseudo_dir  = '/root/qe_pseudos'
    outdir      = '/root/qe_scratch'
    verbosity   = 'low'
    tprnfor     = .true.
    tstress     = .true.
    nstep       = 60
    forc_conv_thr = 1.0d-3
    etot_conv_thr = 1.0d-5
/
&SYSTEM
    ibrav   = 0
    nat     = 27
    ntyp    = 2
    ecutwfc = 50.0
    ecutrho = 400.0
    occupations = 'smearing'
    smearing    = 'mp'
    degauss     = 0.01

/
&ELECTRONS
    conv_thr        = 1.0d-7
    mixing_beta     = 0.4
    electron_maxstep = 200
    diagonalization = 'david'
/
&IONS
    ion_dynamics = 'bfgs'
/

CELL_PARAMETERS angstrom
     11.24478054     0.00000000     0.00000000
     -5.62239027     9.73826599     0.00000000
      0.00000000     0.00000000    17.61493683

ATOMIC_SPECIES
  Pt   195.0840  pt_pbe_v1.4.uspp.F.UPF
  Se    78.9710  Se_pbe_v1.uspp.F.UPF

ATOMIC_POSITIONS angstrom
  Pt     -0.00000787    -0.00782057     8.80471897
  Pt      3.74664259     6.49557066     8.80864620
  Pt      5.62239218     3.24618125     8.80889225
  Pt     -1.86881304     3.25946999     8.80683613
  Pt      7.49828148    -0.00767342     8.80445576
  Pt     -0.00000112     6.48330212     8.81248951
  Pt     -3.74663901     6.49556732     8.80864620
  Pt      1.86881018     3.25947666     8.80683517
  Pt      3.74650812    -0.00767876     8.80445480
  Se      5.62239122     1.07681561    10.10209370
  Se      5.62238932     7.58051395    10.12153053
  Se      1.85476291     1.08271837    10.12597752
  Se      5.62239027     5.40789366     7.50332880
  Se      7.49526310     4.33040571    10.10761452
  Se      0.00000051     2.16535687     7.50841475
  Se      7.49840164     2.16860080     7.50655174
  Se      9.39001656     1.08271742    10.12597466
  Se      0.00000138     4.32892227    10.11624336
  Se      0.00000132     8.63209820     7.49683571
  Se      1.86849070     7.56714630    10.10649204
  Se     -1.87208462     5.42169666     7.50174809
  Se      1.87208533     5.42169666     7.50174856
  Se      3.75067949     8.65655327     7.50856829
  Se     -1.86849010     7.56714773    10.10649109
  Se      3.74638057     2.16860104     7.50654936
  Se     -3.75067997     8.65655327     7.50856686
  Se      3.74951720     4.33040571    10.10761356

K_POINTS automatic
  2 2 1 0 0 0
