&CONTROL
    calculation = 'scf'
    prefix      = 'pristine_Hf2Te6'
    pseudo_dir  = '/root/qe_pseudos'
    outdir      = '/root/qe_scratch'
    verbosity   = 'low'
    tprnfor     = .true.
    tstress     = .true.
    nstep       = 60
    forc_conv_thr = 1.0d-3
    etot_conv_thr = 1.0d-5
/
&SYSTEM
    ibrav   = 0
    nat     = 72
    ntyp    = 2
    ecutwfc = 50.0
    ecutrho = 400.0
    occupations = 'smearing'
    smearing    = 'mp'
    degauss     = 0.01

/
&ELECTRONS
    conv_thr        = 1.0d-7
    mixing_beta     = 0.4
    electron_maxstep = 200
    diagonalization = 'david'
/
&IONS
    ion_dynamics = 'bfgs'
/

CELL_PARAMETERS angstrom
     17.86393356     0.00000000     0.00000000
      0.00000000    11.81625843     0.00000000
      0.00000000     0.00000000    21.89854622

ATOMIC_SPECIES
  Hf   178.4900  Hf-sp.oncvpsp.upf
  Te   127.6000  Te_pbe_v1.uspp.F.UPF

ATOMIC_POSITIONS angstrom
  Hf     12.68981647    10.83035088     9.27182484
  Hf     15.67062378     8.86485577    12.62565517
  Hf     12.69001579     6.88844061     9.27189541
  Hf     15.68176556     4.91359425    12.63661575
  Hf     12.69126606     2.95125151     9.27331066
  Hf     15.68250561     0.99956787    12.63687420
  Hf      6.73665953    10.83084011     9.28209686
  Hf      9.71483326     8.86392021    12.62476349
  Hf      6.73677588     6.88836622     9.28215504
  Hf      9.72320461     4.92036867    12.62885094
  Hf      6.73515224     2.95128345     9.27809334
  Hf      9.72327042     0.99116516    12.62954426
  Hf      0.78006011    10.82782745     9.27147865
  Hf      3.76331735     8.86444378    12.62595654
  Hf      3.75172663     0.95944154    12.63370132
  Hf      3.75092626     4.95288801    12.63385677
  Hf      0.78360415     2.95102739     9.27780247
  Hf      0.78034192     6.89180231     9.27126694
  Te     17.23711205     4.92339993     7.57091188
  Te     11.13074493    10.83047771    14.32060146
  Te     17.23735428     0.98590326     7.56970882
  Te      2.27775383     2.95502520    14.23611450
  Te     12.68407249     0.98929203    11.46058083
  Te     15.66983795     2.94736814    10.43236446
  Te     14.10550022     0.98562664     7.57607222
  Te     14.26072025     2.95284891    14.29595566
  Te     11.28021622     0.98538971     7.57449198
  Te     17.12895203     2.95418525    14.31483746
  Te      2.19871593     0.98702741     7.58000231
  Te      3.77496433     2.94876385    10.46183109
  Te     12.68371582     4.92993593    11.45986652
  Te     15.66604042     6.88233519    10.43923759
  Te     14.10555553     4.92447042     7.57599401
  Te     14.26195335     6.88758230    14.32699490
  Te     11.28033924     4.92405272     7.57411146
  Te     17.08675957     6.89423752    14.32003975
  Te      0.77696460     0.98426062    11.45566177
  Te     12.68614864     8.86825180    11.46358299
  Te     15.66635418    10.83234406    10.44003868
  Te     14.10758114     8.86277866     7.58551979
  Te     14.26221180    10.83408451    14.32810879
  Te     11.27802944     8.86250210     7.57768106
  Te      5.32361078     8.86415577     7.59258795
  Te      8.30541801    10.83202553    14.32636642
  Te      8.14978600     8.86233711     7.57962084
  Te      9.71000385    10.82719517    10.43732643
  Te      2.34540153     6.90088034    14.33509731
  Te      0.77452874     8.86688232    11.45948601
  Te      3.74533510    10.82761383    10.44201374
  Te      2.19795227     8.86262894     7.57172346
  Te      2.34518886    10.82307529    14.33558369
  Te     17.23637962     8.86277485     7.56853056
  Te      5.16997528    10.82874489    14.33565426
  Te      2.19919491     4.92216063     7.58086729
  Te      3.74564028     6.88860369    10.44129276
  Te      6.73156357     0.99201810    11.48115826
  Te      9.70972443     2.95053101    10.43599510
  Te      5.17061090     6.89288807    14.33594513
  Te      8.14788818     0.98498976     7.57672215
  Te      5.32264185     0.98526466     7.58402777
  Te     11.15882492     2.95303059    14.30177212
  Te      0.77767348     4.93248987    11.45612240
  Te      6.73361397     4.92416000    11.48042011
  Te      9.70940971     6.88970327    10.43646622
  Te     17.08673096    10.83005524    14.31988144
  Te      8.30551434     6.88959265    14.32624817
  Te      5.32294083     4.92620039     7.58396053
  Te     11.13084507     6.89262390    14.32056236
  Te      5.21880913     2.95299602    14.43521595
  Te      6.73309422     8.86752796    11.46599483
  Te      8.34719658     2.95315099    14.35112667
  Te      8.14819527     4.92354679     7.57736874

K_POINTS automatic
  2 2 1 0 0 0
