&CONTROL
    calculation = 'scf'
    prefix      = 'pristine_ZrS2'
    pseudo_dir  = '/root/qe_pseudos'
    outdir      = '/root/qe_scratch'
    verbosity   = 'low'
    tprnfor     = .true.
    tstress     = .true.
    nstep       = 60
    forc_conv_thr = 1.0d-3
    etot_conv_thr = 1.0d-5
/
&SYSTEM
    ibrav   = 0
    nat     = 27
    ntyp    = 2
    ecutwfc = 50.0
    ecutrho = 400.0
    occupations = 'smearing'
    smearing    = 'mp'
    degauss     = 0.01

/
&ELECTRONS
    conv_thr        = 1.0d-7
    mixing_beta     = 0.4
    electron_maxstep = 200
    diagonalization = 'david'
/
&IONS
    ion_dynamics = 'bfgs'
/

CELL_PARAMETERS angstrom
     11.04681587     0.00000000     0.00000000
     -5.52340794     9.56682301     0.00000000
      0.00000000     0.00000000    17.89132690

ATOMIC_SPECIES
  S     32.0600  s_pbe_v1.4.uspp.F.UPF
  Zr    91.2240  Zr_pbe_v1.uspp.F.UPF

ATOMIC_POSITIONS angstrom
  S       5.69801807     7.57323360     9.98125839
  S       5.34994173     5.12256384     7.33805037
  S       7.36611843     4.48298550    10.29072285
  S       7.35846043     2.20909500     7.54415751
  S       8.97470951     1.22311246    10.65901470
  S       0.22853500     8.34175491     7.22988415
  S       1.83639872     7.35684252    10.34641266
  S       1.84314156     5.08355618     7.60064459
  S       3.45365167     8.34398746     7.23344183
  S       3.50480723     1.99614465     7.91081476
  S       3.85658908     4.44776058    10.55529308
  S      -3.67230105     8.22212315     6.79201698
  S      -2.01652837     7.57261276     9.98061085
  S      -1.66714549     5.11894798     7.33619261
  S      -0.17457278     4.44532585    10.55322266
  S       0.17353398     1.99268436     7.91155672
  S       1.84606135     1.34654188    11.10077095
  S       5.74958324     1.22263265    10.65848255
  Zr      1.84344578     3.25179648     9.65080547
  Zr      4.56844568    -0.00017038     8.94222832
  Zr      0.06119443     6.34000111     8.83383751
  Zr     -3.67892289     6.31597710     8.24125385
  Zr      7.36184454    -0.00060801     8.94480896
  Zr      5.58478689     3.22678709     9.05713081
  Zr     -1.90041578     3.22533011     9.05724430
  Zr      3.62307405     6.34054184     8.83396244
  Zr     -0.88990152     0.00009984     8.94781303

K_POINTS automatic
  2 2 1 0 0 0
