&CONTROL
    calculation = 'scf'
    prefix      = 'cand003_A_SnS2_La'
    pseudo_dir  = '/root/qe_pseudos'
    outdir      = '/root/qe_scratch'
    verbosity   = 'low'
    tprnfor     = .true.
    tstress     = .true.
    nstep       = 60
    forc_conv_thr = 1.0d-3
    etot_conv_thr = 1.0d-5
/
&SYSTEM
    ibrav   = 0
    nat     = 28
    ntyp    = 3
    ecutwfc = 50.0
    ecutrho = 400.0
    occupations = 'smearing'
    smearing    = 'mp'
    degauss     = 0.01

/
&ELECTRONS
    conv_thr        = 1.0d-7
    mixing_beta     = 0.4
    electron_maxstep = 200
    diagonalization = 'david'
/
&IONS
    ion_dynamics = 'bfgs'
/

CELL_PARAMETERS angstrom
     10.83076096     0.00000000     0.00000000
     -5.41538048     9.37971401     0.00000000
      0.00000000     0.00000000    18.22836304

ATOMIC_SPECIES
  La   138.9055  La.pbe-spfn-kjpaw_psl.1.0.0.UPF
  S     32.0600  s_pbe_v1.4.uspp.F.UPF
  Sn   118.7100  Sn_pbe_v1.uspp.F.UPF

ATOMIC_POSITIONS angstrom
  S       5.30730534     7.13623047    10.81457806
  S       7.08167791     4.05641079     7.40188408
  S       7.08083296     4.06242466    10.82704449
  S       8.80378342     0.88853741     7.28560257
  S       8.80000401     0.88158709    10.95215797
  S       1.80413306     7.31285524     7.47484350
  S       1.80455554     7.31243801    10.74900436
  S       3.55127883     4.14732742     7.49847126
  S       5.30576277     7.13446569     7.41202068
  S       5.44127989     1.04279196     7.47958040
  S       3.54573393     4.15047693    10.72722530
  S      -1.75354064     7.37260199     7.49292326
  S      -1.74943364     7.36390209    10.74195004
  S      -0.03157593     4.27322626     7.48354006
  S      -0.02562752     4.27326536    10.73776531
  S       1.98134875     1.11169994     7.44633865
  S       1.97640038     1.10857260    10.77743626
  S       5.43873024     1.04725420    10.75522232
  Sn      1.82673180     3.08988047     9.11162376
  Sn      3.73552632     0.03500839     9.11288738
  Sn      0.06308021     6.40079880     9.11231995
  Sn     -3.59632754     6.27649498     9.11364937
  Sn      7.16740513    -0.01709463     9.11503124
  Sn      5.38794565     3.09110284     9.11369324
  Sn     -1.93338454     3.97468400     9.11638641
  Sn      3.58227658     6.22426033     9.11223793
  Sn      0.67279357    -0.48157451     9.11350632
  La     -0.94055271     1.47051215     9.11814976

K_POINTS automatic
  2 2 1 0 0 0
