&CONTROL
    calculation = 'scf'
    prefix      = 'cand015_A_WTe2_Sc'
    pseudo_dir  = '/root/qe_pseudos'
    outdir      = '/root/qe_scratch'
    verbosity   = 'low'
    tprnfor     = .true.
    tstress     = .true.
    nstep       = 60
    forc_conv_thr = 1.0d-3
    etot_conv_thr = 1.0d-5
/
&SYSTEM
    ibrav   = 0
    nat     = 28
    ntyp    = 3
    ecutwfc = 50.0
    ecutrho = 400.0
    occupations = 'smearing'
    smearing    = 'mp'
    degauss     = 0.01

/
&ELECTRONS
    conv_thr        = 1.0d-7
    mixing_beta     = 0.4
    electron_maxstep = 200
    diagonalization = 'david'
/
&IONS
    ion_dynamics = 'bfgs'
/

CELL_PARAMETERS angstrom
     10.65022850     0.00000000     0.00000000
     -5.32511425     9.22336864     0.00000000
      0.00000000     0.00000000    18.62392426

ATOMIC_SPECIES
  Sc    44.9559  Sc_ONCV_PBE-1.0.upf
  Te   127.6000  Te_pbe_v1.uspp.F.UPF
  W    183.8400  W_pbe_v1.2.uspp.F.UPF

ATOMIC_POSITIONS angstrom
  Te      5.33397913     7.18271112    11.08937836
  Te      7.13105440     4.08015108     7.56238270
  Te      6.97991991     4.16700220    11.15811539
  Te      8.87473011     1.06017685     7.56778908
  Te      8.87715530     0.88658941    11.15073681
  Te      1.76483452     7.17506647     7.52566719
  Te      1.76081753     7.17665005    11.09469700
  Te      3.55003285     4.09509182     7.52228928
  Te      5.33075285     7.17830610     7.52779531
  Te      5.32585430     1.02765763     7.49280834
  Te      3.54967928     4.08903170    11.09755230
  Te     -1.77700818     7.17651129     7.49123430
  Te     -1.77495766     7.20128679    11.12586308
  Te     -0.03338600     4.07803106     7.56420851
  Te      0.11789272     4.16583109    11.15628147
  Te      1.78628039     1.02745938     7.48601103
  Te      1.80286670     1.01038992    11.12657452
  Te      5.30437994     1.01123655    11.12830639
  W       1.77916801     3.03398728     9.31242180
  W       3.55344033     0.00101340     9.29668999
  W      -0.03803395     6.16554403     9.31424809
  W      -3.51634240     6.16850901     9.31311703
  W       7.06218433     0.01435280     9.31362820
  W       5.32385540     3.03751421     9.31532001
  W      -1.77763915     3.07728314     9.41314888
  W       3.54654193     6.14759970     9.31479549
  W       0.04020552     0.02389043     9.31077003
  Sc     -1.77658165     3.07263541    11.97507381

K_POINTS automatic
  2 2 1 0 0 0
