&CONTROL
    calculation = 'scf'
    prefix      = 'cand119_B_Bi2I6_Cs'
    pseudo_dir  = '/root/qe_pseudos'
    outdir      = '/root/qe_scratch'
    verbosity   = 'low'
    tprnfor     = .true.
    tstress     = .true.
    nstep       = 60
    forc_conv_thr = 1.0d-3
    etot_conv_thr = 1.0d-5
/
&SYSTEM
    ibrav   = 0
    nat     = 33
    ntyp    = 3
    ecutwfc = 50.0
    ecutrho = 400.0
    occupations = 'smearing'
    smearing    = 'mp'
    degauss     = 0.01

/
&ELECTRONS
    conv_thr        = 1.0d-7
    mixing_beta     = 0.4
    electron_maxstep = 200
    diagonalization = 'david'
/
&IONS
    ion_dynamics = 'bfgs'
/

CELL_PARAMETERS angstrom
     15.66425228     0.00000000     0.00000000
     -7.83212614    13.56564045     0.00000000
      0.00000000     0.00000000    18.62169838

ATOMIC_SPECIES
  Bi   208.9804  bi_pbe_v1.4.uspp.F.UPF
  Cs   132.9055  Cs_pbe_v1.uspp.F.UPF
  I    126.9045  I.pbe-n-kjpaw_psl.0.2.UPF

ATOMIC_POSITIONS angstrom
  Bi      3.92239618     2.23665690     9.30471325
  Bi      3.92295337    11.27966595     9.31135559
  Bi      7.82392979     9.04734230     9.30868626
  Bi      7.74549627     4.52219725     9.33057499
  Bi     -3.91916275    11.31251526     9.30721092
  Bi      0.03732506     9.11793423     9.32497311
  Bi     11.86514664     2.14278030     9.19217491
  Bi      0.03785133     4.37007618     9.19313526
  I      -1.16064858     2.00935125    10.88970470
  I       6.46976948    11.14806461    11.13562679
  I       6.59420156     6.82524157    11.08630943
  I       1.48140323    11.26024055     7.42177343
  I       5.32111406     9.20368004     7.45843220
  I       9.00570393     6.75654316     7.53522348
  I       5.03281307    -0.01078750     7.45616961
  I       6.30416298     2.37505770    11.09017754
  I       9.53063393     3.90880275    11.67649746
  I       2.78755808    13.56978416    11.05735397
  I       5.18011904     4.34210443     7.41968346
  I       9.24517059     2.40458727     7.54644775
  I      12.91471100     0.03610899     7.41722250
  I       1.34221983     2.40735388     7.41834116
  I       2.61603713     9.28953743    11.09644604
  I      -5.30932379     9.18822861    11.12785244
  I      -1.37070620    11.26778793    11.08148766
  I      -0.34302032     7.28220081    11.67823315
  I       9.21809101    11.16527081     7.48838711
  I      -2.52064252     9.14576340     7.53431034
  I       1.12786770     6.75889540     7.54767895
  I      13.38688850     3.94780803     7.06213617
  I      -5.06358528    13.53382111    11.13352108
  I       2.51542521     4.37076139    11.05398464
  Cs     12.50749302     5.45262623    10.47648430

K_POINTS automatic
  2 2 1 0 0 0
