&CONTROL
    calculation = 'scf'
    prefix      = 'cand019_B_MoSe2_La'
    pseudo_dir  = '/root/qe_pseudos'
    outdir      = '/root/qe_scratch'
    verbosity   = 'low'
    tprnfor     = .true.
    tstress     = .true.
    nstep       = 60
    forc_conv_thr = 1.0d-3
    etot_conv_thr = 1.0d-5
/
&SYSTEM
    ibrav   = 0
    nat     = 49
    ntyp    = 3
    ecutwfc = 50.0
    ecutrho = 400.0
    occupations = 'smearing'
    smearing    = 'mp'
    degauss     = 0.01

/
&ELECTRONS
    conv_thr        = 1.0d-7
    mixing_beta     = 0.4
    electron_maxstep = 200
    diagonalization = 'david'
/
&IONS
    ion_dynamics = 'bfgs'
/

CELL_PARAMETERS angstrom
     13.27899551     0.00000000     0.00000000
     -6.63949776    11.49994755     0.00000000
      0.00000000     0.00000000    18.33805847

ATOMIC_SPECIES
  La   138.9055  La.pbe-spfn-kjpaw_psl.1.0.0.UPF
  Mo    95.9500  Mo_ONCV_PBE-1.0.upf
  Se    78.9710  Se_pbe_v1.uspp.F.UPF

ATOMIC_POSITIONS angstrom
  Mo      0.02942302     0.00330894     9.17231369
  Mo      4.97962475     8.62839317     9.17497349
  Mo      6.64247179     5.74825621     9.17497158
  Mo      8.28752613     2.84785366     9.17231369
  Mo      9.92982483     0.00330823     9.17231274
  Mo      1.65759850     8.62627506     9.16635799
  Mo      3.31677651     5.74825668     9.17497253
  Mo      4.97962379     2.87235641     9.16635704
  Mo     -1.65987313     8.62718964     9.17278481
  Mo     -0.01757562     5.77380037     9.17230988
  Mo      1.67172098     2.84784913     9.17231083
  Mo      3.32168031    -0.00111483     9.17278481
  Mo      6.63756847    -0.00111466     9.17278385
  Mo     -3.30217361     5.77379894     9.17231464
  Mo     -1.65988481     2.87498975     9.26236439
  Mo     -4.97734404     8.62627506     9.16635799
  Se      3.31381679     3.83490777     7.49801683
  Se      6.65168905     9.57455349    10.83917522
  Se      1.66518915     0.95526057    10.85482502
  Se      8.30096054     6.70236826     7.49801683
  Se      8.29790115     6.72322750    10.83917332
  Se      1.66527319     0.95521009     7.49119997
  Se      9.99972725     3.80994534     7.55544615
  Se      9.82137108     3.91291785    10.94810486
  Se      4.97962427     0.95861518     7.49707317
  Se     11.61911964     1.00508142     7.55544853
  Se     11.61912060     0.79914683    10.94808102
  Se      0.13784844     3.91290116    10.94806480
  Se      3.32409763     9.58763123     7.49801779
  Se      3.30756164     9.57455540    10.83917332
  Se     -0.04048968     3.80993748     7.55544758
  Se      4.97962475     6.70830250     7.50676537
  Se      4.97962523     6.70830107    10.84497929
  Se     -3.31999516     9.58314610     7.49707413
  Se      6.64543152     3.83490777     7.49801493
  Se      6.62583733     3.82712626    10.83917236
  Se     -1.65987265     6.71443605    10.85482407
  Se      8.29397583     0.95521110     7.49120092
  Se      8.29406166     0.95526117    10.85482407
  Se      6.63515282     9.58763027     7.49801874
  Se      0.00025002     9.58314514     7.49707413
  Se     -0.00220724     9.58456516    10.84350204
  Se     -1.65987456     6.71453571     7.49120092
  Se      1.65829051     6.70236921     7.49801636
  Se      1.66134536     6.72322512    10.83917236
  Se     -3.31753683     9.58456516    10.84350204
  Se      3.33340812     3.82712603    10.83917236
  Se      4.97962570     0.95577729    10.84350109
  La     -1.65987897     2.87498856    12.06761074

K_POINTS automatic
  2 2 1 0 0 0
