&CONTROL
    calculation = 'scf'
    prefix      = 'cand263_A_TiS2_Pb'
    pseudo_dir  = '/root/qe_pseudos'
    outdir      = '/root/qe_scratch'
    verbosity   = 'low'
    tprnfor     = .true.
    tstress     = .true.
    nstep       = 60
    forc_conv_thr = 1.0d-3
    etot_conv_thr = 1.0d-5
/
&SYSTEM
    ibrav   = 0
    nat     = 28
    ntyp    = 3
    ecutwfc = 50.0
    ecutrho = 400.0
    occupations = 'smearing'
    smearing    = 'mp'
    degauss     = 0.01

/
&ELECTRONS
    conv_thr        = 1.0d-7
    mixing_beta     = 0.4
    electron_maxstep = 200
    diagonalization = 'david'
/
&IONS
    ion_dynamics = 'bfgs'
/

CELL_PARAMETERS angstrom
     10.24313927     0.00000000     0.00000000
     -5.12156963     8.87081909     0.00000000
      0.00000000     0.00000000    17.84742928

ATOMIC_SPECIES
  Pb   207.2000  Pb.pbe-dn-kjpaw_psl.0.2.2.UPF
  S     32.0600  s_pbe_v1.4.uspp.F.UPF
  Ti    47.8670  ti_pbe_v1.4.uspp.F.UPF

ATOMIC_POSITIONS angstrom
  S       5.12102509     6.86549854    10.42891979
  S       5.12131882     4.96484804     7.49892902
  S       6.81222248     3.92298937    10.33572006
  S       6.86887598     1.96867085     7.53307724
  S       8.45049191     1.06809688    10.47006893
  S      -0.00138154     7.91352272     7.47798777
  S       1.75256920     6.93053102    10.38660812
  S       1.68312633     4.95679569     7.46400595
  S       3.41330361     7.90631056     7.53924131
  S       3.37289262     1.96937537     7.53220892
  S       3.42765045     3.92394662    10.33749199
  S      -3.41396213     7.90714073     7.54021597
  S      -1.75138235     6.92896414    10.38594055
  S      -1.68197083     4.95708323     7.46453762
  S      -0.00029066     3.94090843    10.38787365
  S      -0.00023721     1.90656710     7.64660215
  S       1.79256439     1.06871641    10.47059917
  S       5.12137985     1.00609970    10.32547092
  Ti      1.77346706     3.11756325     8.85486126
  Ti      3.50590086    -0.15917827     8.93662071
  Ti      0.00076396     5.81820488     9.00847626
  Ti     -3.44651556     5.91295385     8.95253563
  Ti      6.73672676    -0.15945643     8.93282509
  Ti      5.12259102     2.92822027     8.85810947
  Ti     -1.76823735     3.11720037     8.85181046
  Ti      3.44526410     5.91515875     8.95271301
  Ti      0.00064087    -0.05153019     8.89580154
  Pb      0.00003868     0.89027244    11.81754684

K_POINTS automatic
  2 2 1 0 0 0
