&CONTROL
    calculation = 'scf'
    prefix      = 'cand195_A_HfS2_La'
    pseudo_dir  = '/root/qe_pseudos'
    outdir      = '/root/qe_scratch'
    verbosity   = 'low'
    tprnfor     = .true.
    tstress     = .true.
    nstep       = 60
    forc_conv_thr = 1.0d-3
    etot_conv_thr = 1.0d-5
/
&SYSTEM
    ibrav   = 0
    nat     = 28
    ntyp    = 3
    ecutwfc = 50.0
    ecutrho = 400.0
    occupations = 'smearing'
    smearing    = 'mp'
    degauss     = 0.01

/
&ELECTRONS
    conv_thr        = 1.0d-7
    mixing_beta     = 0.4
    electron_maxstep = 200
    diagonalization = 'david'
/
&IONS
    ion_dynamics = 'bfgs'
/

CELL_PARAMETERS angstrom
     10.95654488     0.00000000     0.00000000
     -5.47827244     9.48864651     0.00000000
      0.00000000     0.00000000    17.89155006

ATOMIC_SPECIES
  Hf   178.4900  Hf-sp.oncvpsp.upf
  La   138.9055  La.pbe-spfn-kjpaw_psl.1.0.0.UPF
  S     32.0600  s_pbe_v1.4.uspp.F.UPF

ATOMIC_POSITIONS angstrom
  Hf      0.03407992    -0.03355125     8.87856674
  Hf      3.67521429     6.31193399     8.94574261
  Hf     -1.84341240     3.17264795     8.84448242
  Hf     -3.63736606     6.31520939     8.94355392
  Hf      5.49552202     3.15031743     8.94412231
  Hf      3.69404387    -0.02152407     8.97949123
  Hf      7.24804878    -0.02014924     8.92419910
  Hf      1.86939085     3.15137267     8.88107872
  Hf     -0.00739365     6.38429546     8.92691040
  S       5.47553110     7.39317560    10.36810589
  S       5.47736931     5.27014351     7.49962759
  S       7.34757757     4.19521284    10.38562393
  S       7.28494549     2.12022448     7.48087645
  S       9.12864399     1.04213059    10.35640621
  S      -0.03942972     8.45265484     7.44937325
  S       1.82565951     7.37974310    10.34948444
  S       3.64452720     4.21370411    10.36889458
  S       3.63553357     8.44661999     7.51799393
  S       3.66117549     2.09969163     7.51834679
  S       5.49455166     1.05909872    10.40954399
  S      -3.63689351     8.43294334     7.51377010
  S      -1.82538044     7.36286163    10.40324879
  S      -1.84620285     5.28516817     7.48342609
  S       0.00395656     4.22510672    10.36019516
  S       0.00338208     2.10714436     7.49329710
  S       1.79265845     1.07368350    10.36946011
  S       1.80610764     5.28087759     7.51877356
  La     -0.93561643     2.64875221    12.61520386

K_POINTS automatic
  2 2 1 0 0 0
