&CONTROL
    calculation = 'scf'
    prefix      = 'cand239_A_PtS2_Zn'
    pseudo_dir  = '/root/qe_pseudos'
    outdir      = '/root/qe_scratch'
    verbosity   = 'low'
    tprnfor     = .true.
    tstress     = .true.
    nstep       = 60
    forc_conv_thr = 1.0d-3
    etot_conv_thr = 1.0d-5
/
&SYSTEM
    ibrav   = 0
    nat     = 28
    ntyp    = 3
    ecutwfc = 50.0
    ecutrho = 400.0
    occupations = 'smearing'
    smearing    = 'mp'
    degauss     = 0.01

/
&ELECTRONS
    conv_thr        = 1.0d-7
    mixing_beta     = 0.4
    electron_maxstep = 200
    diagonalization = 'david'
/
&IONS
    ion_dynamics = 'bfgs'
/

CELL_PARAMETERS angstrom
     10.72089672     0.00000000     0.00000000
     -5.36044836     9.28456879     0.00000000
      0.00000000     0.00000000    17.46405411

ATOMIC_SPECIES
  Pt   195.0840  pt_pbe_v1.4.uspp.F.UPF
  S     32.0600  s_pbe_v1.4.uspp.F.UPF
  Zn    65.3800  Zn_pbe_v1.uspp.F.UPF

ATOMIC_POSITIONS angstrom
  Pt      3.57752514     6.18330860     8.71211815
  Pt      5.36047840     3.08255577     8.73589897
  Pt      7.11976528    -0.03522129     8.69146252
  Pt      0.00001014     6.18850899     8.64305878
  Pt      1.77813959     3.12682796     8.73971462
  Pt      3.60104632    -0.03516297     8.69157887
  Pt      0.00002574    -0.02601642     8.78748894
  Pt     -3.57751942     6.18330860     8.71214867
  Pt     -1.77813816     3.12680602     8.73969841
  S      -3.60780048     8.26505661     7.52593899
  S       5.36047077     7.17649269     9.96407890
  S       1.76803410     1.14080429    10.06650925
  S       5.36048555     5.14118338     7.49927568
  S       7.14584541     4.13912964     9.95026016
  S       0.00002533     2.06211305     7.53804207
  S       7.15897083     2.04803777     7.52703285
  S       8.95295238     1.14061022    10.06648445
  S      -0.00045851     8.18556118     7.37452888
  S       1.76780903     7.20232105     9.91637802
  S       0.00006210     4.17754126     9.95036125
  S       1.80390930     5.16043472     7.46423483
  S       3.60779166     8.26508522     7.52596521
  S      -1.80385864     5.16048050     7.46417713
  S       3.56198859     2.04808545     7.52701616
  S       5.36046457     0.99123412     9.92086506
  S      -1.76780415     7.20229435     9.91643715
  S       3.57511711     4.13913155     9.95028019
  Zn      0.00003993     1.00593150    11.32775974

K_POINTS automatic
  2 2 1 0 0 0
