&CONTROL
    calculation = 'scf'
    prefix      = 'cand266_A_TaS2_La'
    pseudo_dir  = '/root/qe_pseudos'
    outdir      = '/root/qe_scratch'
    verbosity   = 'low'
    tprnfor     = .true.
    tstress     = .true.
    nstep       = 60
    forc_conv_thr = 1.0d-3
    etot_conv_thr = 1.0d-5
/
&SYSTEM
    ibrav   = 0
    nat     = 28
    ntyp    = 3
    ecutwfc = 50.0
    ecutrho = 400.0
    occupations = 'smearing'
    smearing    = 'mp'
    degauss     = 0.01

/
&ELECTRONS
    conv_thr        = 1.0d-7
    mixing_beta     = 0.4
    electron_maxstep = 200
    diagonalization = 'david'
/
&IONS
    ion_dynamics = 'bfgs'
/

CELL_PARAMETERS angstrom
     10.14448452     0.00000000     0.00000000
     -5.07224226     8.78538132     0.00000000
      0.00000000     0.00000000    18.05891418

ATOMIC_SPECIES
  La   138.9055  La.pbe-spfn-kjpaw_psl.1.0.0.UPF
  S     32.0600  s_pbe_v1.4.uspp.F.UPF
  Ta   180.9479  Ta_pbe_v1.uspp.F.UPF

ATOMIC_POSITIONS angstrom
  S       3.36999464     3.90896249    10.57898426
  S       0.02845979     7.80212593     7.47492218
  S       1.68490851     6.83640480    10.58905411
  S       1.71849680     4.89712763     7.46061134
  S       3.36544466     7.78122091     7.45533133
  S       6.70257235     3.91314840    10.54324913
  S       3.32566905     1.90351427     7.51870537
  S       5.07020855     0.94985336    10.58127308
  S       6.75216722     1.94533825     7.49497557
  S       5.07464552     4.84525585     7.51052427
  S      -1.69977117     6.78077984    10.57137108
  S      -1.68207312     4.91915798     7.49741411
  S      -0.02513434     3.88539696    10.57265472
  S       5.08338165     6.86002874    10.57151794
  S      -0.00943330     1.97529733     7.50583839
  S       1.70086396     0.97746778    10.44841576
  S      -3.42158508     7.79982424     7.50235510
  S       8.45324707     1.01084840    10.57815552
  Ta      3.31801581     5.87623930     9.05759716
  Ta      5.13236952     2.96791387     9.01176643
  Ta     -0.11564405    -0.09595838     9.00905800
  Ta      0.01480952     5.87051487     9.03344822
  Ta      1.70585704     3.05714488     9.02315044
  Ta      3.51261973     0.00414542     9.02572536
  Ta     -3.33281398     5.89015627     9.00493813
  Ta     -1.63325763     2.87644696     9.00360203
  Ta      6.77369022    -0.01651354     9.03936768
  La      1.68994629     0.97888702    13.19427776

K_POINTS automatic
  2 2 1 0 0 0
