&CONTROL
    calculation = 'scf'
    prefix      = 'cand247_B_Pd2Se4_Pb'
    pseudo_dir  = '/root/qe_pseudos'
    outdir      = '/root/qe_scratch'
    verbosity   = 'low'
    tprnfor     = .true.
    tstress     = .true.
    nstep       = 60
    forc_conv_thr = 1.0d-3
    etot_conv_thr = 1.0d-5
/
&SYSTEM
    ibrav   = 0
    nat     = 25
    ntyp    = 3
    ecutwfc = 50.0
    ecutrho = 400.0
    occupations = 'smearing'
    smearing    = 'mp'
    degauss     = 0.01

/
&ELECTRONS
    conv_thr        = 1.0d-7
    mixing_beta     = 0.4
    electron_maxstep = 200
    diagonalization = 'david'
/
&IONS
    ion_dynamics = 'bfgs'
/

CELL_PARAMETERS angstrom
     11.50092125     0.00000000     0.00000000
      0.00000000    11.83986950     0.00000000
      0.00000000     0.00000000    16.45074081

ATOMIC_SPECIES
  Pb   207.2000  Pb.pbe-dn-kjpaw_psl.0.2.2.UPF
  Pd   106.4200  Pd_ONCV_PBE-1.0.upf
  Se    78.9710  Se_pbe_v1.uspp.F.UPF

ATOMIC_POSITIONS angstrom
  Pd      2.85753584    11.82282352     8.28102112
  Pd      5.75429964     8.87679386     8.22778797
  Pd      8.62434196     5.91893768     8.22559261
  Pd      5.76586294     2.96310401     8.27643108
  Pd     11.50448418     8.88386154     8.22425938
  Pd      2.86518312     5.92808104     8.21724510
  Pd      8.62131214    11.83921719     8.22715569
  Pd     11.48643684     2.97337198     8.21813297
  Se     10.86717987    11.13930607     8.98900127
  Se      9.25703430     8.17009544     8.99394703
  Se      6.37581062     6.62141705     7.46268606
  Se      0.63223255     0.72039843     7.46335888
  Se      7.99121141     3.66843700     7.45514011
  Se     10.86985111     5.22130919     8.99242878
  Se      5.10579920     5.22116041     9.01358795
  Se      6.37156010     0.70610523     7.46959400
  Se      3.58765388     2.17328691     9.11093140
  Se      7.99975252     9.58658886     7.45585442
  Se      2.25025868     9.59186840     7.45286369
  Se      5.12624979    11.11442471     9.00888538
  Se      3.50079036     8.17346668     8.98824596
  Se      0.62458909     6.63479376     7.44966507
  Se      2.23623681     3.67289305     7.52338409
  Se      9.24909687     2.25432539     8.98945141
  Pb      3.49901676     2.29265499    11.36095428

K_POINTS automatic
  2 2 1 0 0 0
