&CONTROL
    calculation = 'scf'
    prefix      = 'cand256_B_NiSe2_Bi'
    pseudo_dir  = '/root/qe_pseudos'
    outdir      = '/root/qe_scratch'
    verbosity   = 'low'
    tprnfor     = .true.
    tstress     = .true.
    nstep       = 60
    forc_conv_thr = 1.0d-3
    etot_conv_thr = 1.0d-5
/
&SYSTEM
    ibrav   = 0
    nat     = 28
    ntyp    = 3
    ecutwfc = 50.0
    ecutrho = 400.0
    occupations = 'smearing'
    smearing    = 'mp'
    degauss     = 0.01

/
&ELECTRONS
    conv_thr        = 1.0d-7
    mixing_beta     = 0.4
    electron_maxstep = 200
    diagonalization = 'david'
/
&IONS
    ion_dynamics = 'bfgs'
/

CELL_PARAMETERS angstrom
     10.62524319     0.00000000     0.00000000
     -5.31262159     9.20173073     0.00000000
      0.00000000     0.00000000    17.48778534

ATOMIC_SPECIES
  Bi   208.9804  bi_pbe_v1.4.uspp.F.UPF
  Ni    58.6934  ni_pbe_v1.4.uspp.F.UPF
  Se    78.9710  Se_pbe_v1.uspp.F.UPF

ATOMIC_POSITIONS angstrom
  Ni      3.52724171     6.14425421     8.66849232
  Ni      5.29820442     3.07238603     8.69197655
  Ni      7.05960083    -0.00424915     8.73281860
  Ni     -0.00761184     6.15818024     8.72818375
  Ni      1.97674215     3.08419061     8.51682663
  Ni      3.58660436    -0.02601176     8.63270378
  Ni      0.08213664    -0.18656299     8.51666927
  Ni     -3.55533528     6.14133692     8.69347954
  Ni     -1.98674822     3.19250894     8.54005527
  Se     -3.40122485     8.08862019     7.37596178
  Se      5.30047607     7.16321898     9.87258720
  Se      1.90097642     0.95795476    10.32905388
  Se      5.30105400     5.11556005     7.46978760
  Se      6.89967251     4.19325066    10.15880203
  Se      0.18248577     1.94106913     7.54187775
  Se      6.87498474     1.85046649     7.25855112
  Se      8.61925125     0.75375444    10.61112595
  Se      0.07424495     8.14038277     7.37895107
  Se      1.77170181     7.15339708     9.93876648
  Se      0.10657642     4.43358850    10.61730003
  Se      1.73157012     5.15357161     7.43970776
  Se      3.47965312     8.19263554     7.43554115
  Se     -1.70696771     5.39096880     7.25901699
  Se      3.69174433     1.96498513     7.36480904
  Se      5.26920128     1.03413165     9.94966412
  Se     -1.80327368     7.18540096     9.94827175
  Se      3.53175282     4.09605551     9.86917210
  Bi     -0.12945965     2.12454510    10.09211636

K_POINTS automatic
  2 2 1 0 0 0
