&CONTROL
    calculation = 'scf'
    prefix      = 'cand032_B_Mo2CO2_In'
    pseudo_dir  = '/root/qe_pseudos'
    outdir      = '/root/qe_scratch'
    verbosity   = 'low'
    tprnfor     = .true.
    tstress     = .true.
    nstep       = 60
    forc_conv_thr = 1.0d-3
    etot_conv_thr = 1.0d-5
/
&SYSTEM
    ibrav   = 0
    nat     = 81
    ntyp    = 4
    ecutwfc = 50.0
    ecutrho = 400.0
    occupations = 'smearing'
    smearing    = 'mp'
    degauss     = 0.01

/
&ELECTRONS
    conv_thr        = 1.0d-7
    mixing_beta     = 0.4
    electron_maxstep = 200
    diagonalization = 'david'
/
&IONS
    ion_dynamics = 'bfgs'
/

CELL_PARAMETERS angstrom
     12.37018871     0.00000000     0.00000000
     -6.18509436    10.71289730     0.00000000
      0.00000000     0.00000000    19.82332611

ATOMIC_SPECIES
  C     12.0110  C.pbe-n-kjpaw_psl.1.0.0.UPF
  In   114.8180  In.pbe-dn-rrkjus_psl.0.2.2.UPF
  Mo    95.9500  Mo_ONCV_PBE-1.0.upf
  O     15.9990  O.pbe-n-kjpaw_psl.0.1.UPF

ATOMIC_POSITIONS angstrom
  C       1.52266836     8.05244923     9.90027618
  C      -4.65396357     8.06039333     9.91226196
  C       0.00042674     5.38152027     9.87232780
  C       4.60065937     2.68436027     9.91012383
  C       9.25591278    -0.01201159     9.87192917
  C      -3.07923865     5.31993055     9.90925121
  C       3.11367869    -0.01290484     9.87185478
  C       7.76129198     2.67818809     9.91246891
  C       1.50025153     2.65313315     9.97064495
  C      -1.50171661     2.65183473     9.97109509
  C       6.18495369     5.35632563     9.95765018
  C      -1.51803672     8.04575157     9.90070534
  C       0.00135392     0.05166544     9.97163105
  C       4.66319895     8.06426334     9.90929794
  C       6.18077993    -0.02782100     9.89940739
  C       3.07815671     5.32977009     9.91229916
  Mo      7.69999599     0.86272740    11.03215122
  Mo      4.67576599     4.48720598     8.76604652
  Mo      6.18412685     3.51981878    11.01766014
  Mo      0.00098261     8.93051529    11.20993900
  Mo      3.14101529     7.11962080     8.77424431
  Mo     -0.00110334     1.78328383     8.74654293
  Mo      1.53906190     9.81864357     8.76222420
  Mo      3.06501865     8.91109180    11.03239059
  Mo      9.29819584     1.83530259     8.77008152
  Mo     10.70920181     0.82909405    10.98968220
  Mo      7.69240475     4.48344755     8.76603794
  Mo      9.31551838     3.54534411    11.08821774
  Mo      6.18771267     7.09786463     8.76588917
  Mo      7.77599287     6.27372742    11.01732922
  Mo      4.69299507     9.82507324     8.76777458
  Mo      6.18776131     8.97198677    11.08810711
  Mo      4.59486341     6.27529144    11.01758385
  Mo     -1.54199660     9.81333256     8.76170826
  Mo      6.17972040     1.84011078     8.77357769
  Mo     -3.05155253     8.91474152    11.03174782
  Mo     -1.54741490     6.28168535    11.03157139
  Mo     -3.13545179     7.11149740     8.77419090
  Mo      3.06150222     1.83030295     8.76776600
  Mo      4.66680050     0.87593734    11.03261471
  Mo      1.57868755     4.42133284     8.77036953
  Mo      3.05143738     3.55070734    11.08836174
  Mo     -1.56894970     4.41437149     8.76784325
  Mo      0.00225489     3.70302916    10.99061012
  Mo     -4.69231033     9.81333065     8.77005386
  Mo      1.53737736     6.29160023    11.03129101
  Mo      0.00270994     7.14794254     8.75998783
  Mo      1.65991604     0.82666308    10.99047947
  O      -3.09057426     7.14161062    12.18457508
  O       9.26334667     1.78101325    12.18029404
  O      10.85586357     0.91274685     7.63084888
  O       0.00120731     3.53294659     7.63235140
  O       7.71268606     6.23838139     7.61888027
  O       7.75176764     4.45049858    12.12865448
  O       9.27398491     3.57273865     7.62940216
  O      -1.55172575     4.47516489    12.18084621
  O      -1.53933072     6.23589706     7.67986536
  O       0.00024763     1.78587735    12.31800652
  O       1.51284051     0.91035181     7.63171864
  O       6.18625641     7.16624594    12.12869740
  O       4.63146210     9.80973053    12.18092060
  O      -0.00423041     7.13105726    12.20616722
  O       1.55884898     9.82253838    12.20893002
  O      -1.55453217     9.82943058    12.20858479
  O      -0.00024786     8.92721272     7.61098623
  O       6.18534088     8.92341328     7.62932825
  O       3.09582472     3.57317519     7.62968159
  O       1.54998565     4.47841835    12.18044853
  O       6.18375492     1.78349364    12.18446255
  O       7.73898935     0.89642555     7.68011379
  O       3.10063577     8.94002438     7.68047667
  O       4.62379789     0.89353418     7.68094015
  O       6.18521833     3.59263539     7.61827660
  O       3.10499215     1.78422511    12.18142128
  O       3.09164047     7.14395094    12.18475914
  O       4.65747595     6.23807859     7.61893129
  O      -3.09944820     8.93229866     7.67944145
  O      -4.62801409     9.80970573    12.17992783
  O       1.54539597     6.24062204     7.67927694
  O       4.61715889     4.45259905    12.12867832
  In      0.00034383     1.78607368    13.97313499

K_POINTS automatic
  2 2 1 0 0 0
