&CONTROL
    calculation = 'scf'
    prefix      = 'cand278_A_ZrSe2_In'
    pseudo_dir  = '/root/qe_pseudos'
    outdir      = '/root/qe_scratch'
    verbosity   = 'low'
    tprnfor     = .true.
    tstress     = .true.
    nstep       = 60
    forc_conv_thr = 1.0d-3
    etot_conv_thr = 1.0d-5
/
&SYSTEM
    ibrav   = 0
    nat     = 28
    ntyp    = 3
    ecutwfc = 50.0
    ecutrho = 400.0
    occupations = 'smearing'
    smearing    = 'mp'
    degauss     = 0.01

/
&ELECTRONS
    conv_thr        = 1.0d-7
    mixing_beta     = 0.4
    electron_maxstep = 200
    diagonalization = 'david'
/
&IONS
    ion_dynamics = 'bfgs'
/

CELL_PARAMETERS angstrom
     11.38451385     0.00000000     0.00000000
     -5.69225693     9.85927773     0.00000000
      0.00000000     0.00000000    18.15047073

ATOMIC_SPECIES
  In   114.8180  In.pbe-dn-rrkjus_psl.0.2.2.UPF
  Se    78.9710  Se_pbe_v1.uspp.F.UPF
  Zr    91.2240  Zr_pbe_v1.uspp.F.UPF

ATOMIC_POSITIONS angstrom
  Se      5.70193863     7.69045496    10.63496590
  Se      5.67551756     5.46187782     7.49764061
  Se      7.61912060     4.37719774    10.63983631
  Se      7.56298876     2.14791870     7.47782040
  Se      9.50909233     1.11361730    10.65797997
  Se     -0.04031143     8.74923325     7.43141747
  Se      1.90378940     7.64175415    10.71573067
  Se      1.86683226     5.51377058     7.51715136
  Se      3.75226784     8.75097466     7.47764397
  Se      3.81403542     2.15912890     7.50975800
  Se      3.80536318     4.36411381    10.61565876
  Se     -3.77119708     8.75268364     7.48908377
  Se     -1.90642011     7.67742682    10.66131210
  Se     -1.89478433     5.50969458     7.48199749
  Se     -0.00786320     4.34117365    10.67996025
  Se      0.00002601     2.18987703     7.51332617
  Se      1.84326804     1.12148321    10.69366074
  Se      5.67460680     1.09085500    10.69865894
  Zr      1.93363214     3.30514407     8.98820877
  Zr      3.91264105    -0.03491866     9.08596897
  Zr      0.03783321     6.66374159     9.10503197
  Zr     -3.78614163     6.57438517     9.04079247
  Zr      7.56739378    -0.01683989     9.13537025
  Zr      5.71200848     3.28897572     9.06151867
  Zr     -1.95431054     3.32034159     8.98798084
  Zr      3.79130530     6.60851097     9.06564999
  Zr      0.00054783    -0.05558377     8.98899555
  In     -0.01609781     2.19529414    11.93407249

K_POINTS automatic
  2 2 1 0 0 0
