&CONTROL
    calculation = 'scf'
    prefix      = 'cand260_B_SnSe2_Pb'
    pseudo_dir  = '/root/qe_pseudos'
    outdir      = '/root/qe_scratch'
    verbosity   = 'low'
    tprnfor     = .true.
    tstress     = .true.
    nstep       = 60
    forc_conv_thr = 1.0d-3
    etot_conv_thr = 1.0d-5
/
&SYSTEM
    ibrav   = 0
    nat     = 28
    ntyp    = 3
    ecutwfc = 50.0
    ecutrho = 400.0
    occupations = 'smearing'
    smearing    = 'mp'
    degauss     = 0.01

/
&ELECTRONS
    conv_thr        = 1.0d-7
    mixing_beta     = 0.4
    electron_maxstep = 200
    diagonalization = 'david'
/
&IONS
    ion_dynamics = 'bfgs'
/

CELL_PARAMETERS angstrom
     11.59452343     0.00000000     0.00000000
     -5.79726171    10.04115105     0.00000000
      0.00000000     0.00000000    18.18258286

ATOMIC_SPECIES
  Pb   207.2000  Pb.pbe-dn-kjpaw_psl.0.2.2.UPF
  Se    78.9710  Se_pbe_v1.uspp.F.UPF
  Sn   118.7100  Sn_pbe_v1.uspp.F.UPF

ATOMIC_POSITIONS angstrom
  Se      5.91242504     7.98351622    10.55656815
  Se      5.67973995     5.50259399     7.45242167
  Se      7.72885895     4.56653452    10.68950176
  Se      7.72811222     2.42812967     7.51410007
  Se      9.61737061     1.28512692    10.87317371
  Se      0.03794046     8.75241470     7.30718231
  Se      1.93219543     7.61324310    10.66890812
  Se      1.93246710     5.47615719     7.49340677
  Se      3.82298923     8.75673199     7.30841589
  Se      3.76065874     2.05979228     7.62621546
  Se      3.98014998     4.54480553    10.73187828
  Se     -3.86353660     8.62556076     7.17509556
  Se     -2.03240347     7.97812605    10.55613708
  Se     -1.82098305     5.49385500     7.45151949
  Se     -0.11655470     4.53726339    10.73151302
  Se      0.11060868     2.06381392     7.62426043
  Se      1.93267322     1.41475809    11.00881481
  Se      5.83762646     1.28871906    10.87467384
  Sn      1.93185496     3.42208695     9.24693680
  Sn      4.56191397    -0.00020047     9.09343243
  Sn      0.03670948     6.64415789     9.06099319
  Sn     -3.86444139     6.61844349     8.93577766
  Sn      7.72969866    -0.00117178     9.08204269
  Sn      5.83451748     3.39616823     9.12333679
  Sn     -1.97154307     3.39333129     9.12597370
  Sn      3.82514238     6.64707232     9.06053829
  Sn     -0.69711572     0.00217642     9.09130764
  Pb      1.93248379     0.00061124     9.09203243

K_POINTS automatic
  2 2 1 0 0 0
